n=20;
t=24;
profit=[1 1 8 8 9 8 5 2 1 3 2 6 2 8 3 4 2 5 7 4];
length=[1 5 5 1 5 1 5 3 5 4 2 5 3 3 2 2 2 5 5 3];
min_deliver=[7 20 9 4 2 13 9 7 5 1 3 2 5 13 2 3 9 13 2 2];
max_deliver=[9 23 23 5 8 20 9 10 12 7 4 5 18 17 2 4 18 16 12 16];
surface=[2 3 4 1 1 3 3 1 5 3 1 3 1 3 4 2 2 4 2 3];
surface_capacity=13;
